p cnf 117 191               
-11 40 0
-9 38 0
-7 36 0
-5 34 0
-1 32 0
-3 32 0
1 3 -32 0
-32 34 0
5 32 -34 0
-34 36 0
7 34 -36 0
-36 38 0
9 36 -38 0
-38 40 0
11 38 -40 0
40 50 0
-12 41 0
-10 39 0
-8 37 0
-6 35 0
-2 33 0
-4 33 0
2 4 -33 0
-33 35 0
6 33 -35 0
-35 37 0
8 35 -37 0
-37 39 0
10 37 -39 0
-39 41 0
12 39 -41 0
41 42 0
40 42 0
-41 -40 -42 0
42 -44 0
-40 43 0
-41 43 0
40 41 -43 0
43 -44 0
-42 -43 44 0
-44 -40 48 0
44 -13 48 0
-40 -13 48 0
-48 50 0
41 51 0
-44 -41 49 0
44 -14 49 0
-41 -14 49 0
-49 51 0
-50 -51 52 0
-52 -53 0
-3 16 0
-4 16 0
3 4 -16 0
-1 15 0
-2 15 0
1 2 -15 0
-16 -15 -21 0
21 -31 0
-15 22 0
-16 22 0
15 16 -22 0
-5 17 0
-6 17 0
5 6 -17 0
-22 -17 -23 0
23 -31 0
-17 24 0
-22 24 0
17 22 -24 0
-7 18 0
-8 18 0
7 8 -18 0
-24 -18 -25 0
25 -31 0
-18 26 0
-24 26 0
18 24 -26 0
-9 19 0
-10 19 0
9 10 -19 0
-26 -19 -27 0
27 -31 0
-19 28 0
-26 28 0
19 26 -28 0
-11 20 0
-12 20 0
11 12 -20 0
-28 -20 -29 0
29 -31 0
20 28 -30 0
30 -31 0
31 -53 0
44 -53 0
-14 -13 -45 0
45 -47 0
13 14 -46 0
46 -47 0
47 -53 0
-1 3 -54 0
54 -60 0
-1 -3 55 0
1 3 55 0
-3 3 55 0
-2 4 -56 0
-55 56 -57 0
57 -60 0
60 -116 0
-3 5 -61 0
61 -67 0
-3 -5 62 0
3 5 62 0
-5 5 62 0
-4 6 -63 0
-62 63 -64 0
64 -67 0
67 -116 0
-5 7 -68 0
68 -74 0
-5 -7 69 0
5 7 69 0
-7 7 69 0
-6 8 -70 0
-69 70 -71 0
71 -74 0
74 -116 0
-7 9 -75 0
75 -81 0
-7 -9 76 0
7 9 76 0
-9 9 76 0
-8 10 -77 0
-76 77 -78 0
78 -81 0
81 -116 0
-9 11 -82 0
82 -88 0
-9 -11 83 0
9 11 83 0
-11 11 83 0
-10 12 -84 0
-83 84 -85 0
85 -88 0
88 -116 0
-13 14 -89 0
89 -115 0
-13 -14 90 0
13 14 90 0
-14 14 90 0
-1 2 -91 0
-90 91 -92 0
92 -115 0
-1 -2 93 0
1 2 93 0
-2 2 93 0
-90 -93 94 0
-3 4 -95 0
-94 95 -96 0
96 -115 0
-3 -4 97 0
3 4 97 0
-4 4 97 0
-94 -97 98 0
-5 6 -99 0
-98 99 -100 0
100 -115 0
-5 -6 101 0
5 6 101 0
-6 6 101 0
-98 -101 102 0
-7 8 -103 0
-102 103 -104 0
104 -115 0
-7 -8 105 0
7 8 105 0
-8 8 105 0
-102 -105 106 0
-9 10 -107 0
-106 107 -108 0
108 -115 0
-9 -10 109 0
9 10 109 0
-10 10 109 0
-106 -109 110 0
-11 12 -111 0
-110 111 -112 0
112 -115 0
115 -116 0
53 0
116 0
